n = 9;
k = 3;
maxsize = 9;
nML = 2;
nCL = 2;
deg = [2, 1, 2, 3, 2, 1, 4, 2, 1];
ML = array2d(1..2, 1..2, [8, 4, 7, 6]);
CL = array2d(1..2, 1..2, [5, 2, 9, 3]);
A = array2d(1..9, 1..9, [ 0, 0, 1, 0, 0, 0, 0, 1, 0, 0, 0, 0, 0, 0, 0, 1, 0, 0, 1, 0, 0, 0, 0, 0, 1, 0, 0, 0, 0, 0, 0, 1, 1, 1, 0, 0, 0, 0, 0, 1, 0, 0, 0, 1, 0, 0, 0, 0, 1, 0, 0, 0, 0, 0, 0, 1, 1, 1, 0, 0, 0, 0, 1, 1, 0, 0, 0, 1, 0, 0, 0, 0, 0, 0, 0, 0, 0, 0, 1, 0, 0 ]);
W = array2d(1..9, 1..9, [ -5, 10, -1, -7, 1, 2, 6, -5, -3, 4, -5, -5, 9, 5, -10, 9, -4, 4, 1, 10, 3, -2, -6, -1, 10, 5, 2, 7, 0, 5, -7, 1, -4, -5, 5, -3, 10, 9, 0, 6, -8, 9, -6, 5, -8, 6, 9, 9, 0, 5, 6, 1, 3, -2, -9, 6, 7, -6, -5, -10, 5, -7, -9, -7, -8, 7, -10, 4, -7, -7, -2, -3, 1, -4, -2, -4, 7, 1, -1, -10, 4 ]);